sys.path.insert(0, './..')
import uhfno

molecule {
0 2
N
O 1 1.25
}

set {
  basis sto-3g
  reference uhf
  maxiter 100
}

energy('uhfno')

